sat
(:eliminated-vars              1
 :max-memory                   18.24
 :memory                       18.01
 :nlsat-conflicts              9
 :nlsat-decisions              4
 :nlsat-irrational-assignments 2
 :nlsat-learned-added          9
 :nlsat-propagations           48
 :nlsat-stages                 12
 :num-allocs                   10058
 :rlimit-count                 12929
 :time                         0.01
 :total-time                   0.02)
